10 45
1 2 0
1 3 19
1 4 17
1 5 4
1 6 27
1 7 16
1 8 0
1 9 6
1 10 6
2 3 2
2 4 28
2 5 16
2 6 12
2 7 29
2 8 6
2 9 22
2 10 14
3 4 16
3 5 27
3 6 28
3 7 7
3 8 26
3 9 8
3 10 15
4 5 2
4 6 18
4 7 21
4 8 18
4 9 10
4 10 21
5 6 25
5 7 28
5 8 2
5 9 22
5 10 27
6 7 28
6 8 2
6 9 13
6 10 10
7 8 28
7 9 17
7 10 21
8 9 6
8 10 15
9 10 16
